words_hard_train/1687.qaiger
aag 109 17 0 1 92
2
4
8
14
32
40
60
68
80
88
118
126
134
156
164
182
198
218
6 3 5
10 6 9
12 2 4
16 4 14
18 5 15
20 17 19
22 21 9
24 20 8
26 23 25
28 12 26
30 29 25
34 19 32
36 18 33
38 35 37
42 39 41
44 38 40
46 43 45
48 30 47
50 31 46
52 49 51
54 53 41
56 10 54
58 51 45
62 37 60
64 36 61
66 63 65
70 67 69
72 66 68
74 71 73
76 59 74
78 77 73
82 65 80
84 64 81
86 83 85
90 87 89
92 86 88
94 91 93
96 78 95
98 79 94
100 97 99
102 101 89
104 56 102
106 58 75
108 107 77
110 109 69
112 110 15
114 13 27
116 115 29
120 117 118
122 112 121
124 99 93
128 85 126
130 84 127
132 129 131
136 133 135
138 132 134
140 137 139
142 124 141
144 125 140
146 143 145
148 147 135
150 122 148
152 104 150
154 145 139
158 131 156
160 130 157
162 159 161
166 163 165
168 162 164
170 167 169
172 154 171
174 155 170
176 173 175
178 177 165
180 152 178
184 160 183
186 161 182
188 185 187
190 175 169
192 189 190
194 188 191
196 193 195
200 197 199
202 120 111
204 202 103
206 179 204
208 10 14
210 55 149
212 208 210
214 206 212
216 201 215
218 181 217
i0 1 x2[0]
i1 1 x1[0]
i2 1 x2[1]
i3 1 x1[1]
i4 1 x1[2]
i5 1 x2[2]
i6 1 x1[3]
i7 1 x2[3]
i8 1 x1[4]
i9 1 x2[4]
i10 2 y2[7]
i11 1 x1[5]
i12 1 x2[5]
i13 1 x1[6]
i14 1 x2[6]
i15 1 x1[7]
i16 1 x2[7]
o0 bv[0]
c
simplified
  >
    or
      1 x2
      subtract
        1 x2
        1 x1
    >> 7
      2 y2
