words_hard_train/1687.qaiger.qdimacs
p cnf 109 277
a 1 2 34 4 67 99 7 40 44 78 16 82 20 91 30 63 0
e 3 5 6 8 9 10 11 12 13 14 15 17 18 19 21 22 23 24 25 26 27 28 29 31 32 33 35 36 37 38 39 41 42 43 45 46 47 48 49 50 51 52 53 54 55 56 57 58 59 60 61 62 64 65 66 68 69 70 71 72 73 74 75 76 77 79 80 81 83 84 85 86 87 88 89 90 92 93 94 95 96 97 98 100 101 102 103 104 105 106 107 108 109 0
1 2 3 0
-1 -3 0
-2 -3 0
-3 4 5 0
3 -5 0
-4 -5 0
-1 -2 6 0
1 -6 0
2 -6 0
-2 -7 8 0
2 -8 0
7 -8 0
2 7 9 0
-2 -9 0
-7 -9 0
8 9 10 0
-8 -10 0
-9 -10 0
10 4 11 0
-10 -11 0
-4 -11 0
-10 -4 12 0
10 -12 0
4 -12 0
11 12 13 0
-11 -13 0
-12 -13 0
-6 -13 14 0
6 -14 0
13 -14 0
14 12 15 0
-14 -15 0
-12 -15 0
9 -16 17 0
-9 -17 0
16 -17 0
-9 16 18 0
9 -18 0
-16 -18 0
17 18 19 0
-17 -19 0
-18 -19 0
19 20 21 0
-19 -21 0
-20 -21 0
-19 -20 22 0
19 -22 0
20 -22 0
21 22 23 0
-21 -23 0
-22 -23 0
-15 23 24 0
15 -24 0
-23 -24 0
15 -23 25 0
-15 -25 0
23 -25 0
24 25 26 0
-24 -26 0
-25 -26 0
26 20 27 0
-26 -27 0
-20 -27 0
-5 -27 28 0
5 -28 0
27 -28 0
25 22 29 0
-25 -29 0
-22 -29 0
18 -30 31 0
-18 -31 0
30 -31 0
-18 30 32 0
18 -32 0
-30 -32 0
31 32 33 0
-31 -33 0
-32 -33 0
33 34 35 0
-33 -35 0
-34 -35 0
-33 -34 36 0
33 -36 0
34 -36 0
35 36 37 0
-35 -37 0
-36 -37 0
29 -37 38 0
-29 -38 0
37 -38 0
38 36 39 0
-38 -39 0
-36 -39 0
32 -40 41 0
-32 -41 0
40 -41 0
-32 40 42 0
32 -42 0
-40 -42 0
41 42 43 0
-41 -43 0
-42 -43 0
43 44 45 0
-43 -45 0
-44 -45 0
-43 -44 46 0
43 -46 0
44 -46 0
45 46 47 0
-45 -47 0
-46 -47 0
-39 47 48 0
39 -48 0
-47 -48 0
39 -47 49 0
-39 -49 0
47 -49 0
48 49 50 0
-48 -50 0
-49 -50 0
50 44 51 0
-50 -51 0
-44 -51 0
-28 -51 52 0
28 -52 0
51 -52 0
-29 37 53 0
29 -53 0
-37 -53 0
53 38 54 0
-53 -54 0
-38 -54 0
54 34 55 0
-54 -55 0
-34 -55 0
-55 7 56 0
55 -56 0
-7 -56 0
6 13 57 0
-6 -57 0
-13 -57 0
57 14 58 0
-57 -58 0
-14 -58 0
58 -59 60 0
-58 -60 0
59 -60 0
-56 60 61 0
56 -61 0
-60 -61 0
49 46 62 0
-49 -62 0
-46 -62 0
42 -63 64 0
-42 -64 0
63 -64 0
-42 63 65 0
42 -65 0
-63 -65 0
64 65 66 0
-64 -66 0
-65 -66 0
66 67 68 0
-66 -68 0
-67 -68 0
-66 -67 69 0
66 -69 0
67 -69 0
68 69 70 0
-68 -70 0
-69 -70 0
-62 70 71 0
62 -71 0
-70 -71 0
62 -70 72 0
-62 -72 0
70 -72 0
71 72 73 0
-71 -73 0
-72 -73 0
73 67 74 0
-73 -74 0
-67 -74 0
-61 -74 75 0
61 -75 0
74 -75 0
-52 -75 76 0
52 -76 0
75 -76 0
72 69 77 0
-72 -77 0
-69 -77 0
65 -78 79 0
-65 -79 0
78 -79 0
-65 78 80 0
65 -80 0
-78 -80 0
79 80 81 0
-79 -81 0
-80 -81 0
81 82 83 0
-81 -83 0
-82 -83 0
-81 -82 84 0
81 -84 0
82 -84 0
83 84 85 0
-83 -85 0
-84 -85 0
-77 85 86 0
77 -86 0
-85 -86 0
77 -85 87 0
-77 -87 0
85 -87 0
86 87 88 0
-86 -88 0
-87 -88 0
88 82 89 0
-88 -89 0
-82 -89 0
-76 -89 90 0
76 -90 0
89 -90 0
-80 91 92 0
80 -92 0
-91 -92 0
80 -91 93 0
-80 -93 0
91 -93 0
92 93 94 0
-92 -94 0
-93 -94 0
87 84 95 0
-87 -95 0
-84 -95 0
94 -95 96 0
-94 -96 0
95 -96 0
-94 95 97 0
94 -97 0
-95 -97 0
96 97 98 0
-96 -98 0
-97 -98 0
98 99 100 0
-98 -100 0
-99 -100 0
-60 55 101 0
60 -101 0
-55 -101 0
-101 51 102 0
101 -102 0
-51 -102 0
89 -102 103 0
-89 -103 0
102 -103 0
-5 -7 104 0
5 -104 0
7 -104 0
27 74 105 0
-27 -105 0
-74 -105 0
-104 -105 106 0
104 -106 0
105 -106 0
-103 -106 107 0
103 -107 0
106 -107 0
100 107 108 0
-100 -108 0
-107 -108 0
90 108 109 0
-90 -109 0
-108 -109 0
109 0
